87
0 83 43 27 57 67 75 24 4 60 
69 74 53 23 59 3 61 72 76 33 
36 51 68 34 55 71 20 28 42 45 
44 56 62 47 73 50 80 5 25 17 
79 1 9 12 15 18 40 41 64 84 
29 21 10 14 30 8 85 54 6 31 
81 11 48 46 32 39 82 37 35 22 
63 66 58 78 70 26 49 77 38 13 
16 52 2 86 7 65 19 
